NAME : graph7
COMMENT : H Algorithm Solution by Oscar Riveros [http://twitter.com/maxtuno]
TYPE : TOUR
DIMENSION : 102
TOUR_SECTION
96
2
15
63
79
4
81
49
50
24
59
102
3
38
42
89
72
1
9
99
55
7
75
71
25
76
77
67
27
39
93
60
73
43
98
5
22
56
54
92
52
29
64
91
74
6
8
70
62
44
90
87
28
51
30
33
97
80
19
82
21
46
34
45
37
48
68
32
78
85
35
13
12
88
36
23
86
101
57
69
47
66
61
11
84
83
16
31
17
94
20
10
58
18
14
100
95
41
53
65
40
26
-1
EOF
